NAME : pr76Preorder.2490.tour
COMMENT : Length = 2490
COMMENT : Found by LKH [Keld Helsgaun] Fri May  1 16:20:55 2020
TYPE : TOUR
DIMENSION : 76
TOUR_SECTION
1
23
22
21
25
24
46
45
44
48
47
69
68
70
67
50
49
51
66
65
71
72
73
64
63
62
61
60
41
59
58
57
56
55
52
53
54
42
43
28
27
26
30
19
20
31
29
32
33
34
40
39
38
35
36
37
18
17
16
15
14
74
13
12
11
10
9
8
7
6
5
4
3
2
75
76
-1
EOF
